\ This file has been generated by DOcplex
\ ENCODING=ISO-8859-1
\Problem name: Orandom10242_18.lp

Minimize
 obj: - 148.000012583161 x0 - 74.000006291581 x1 - 37.000003145790 x2
      - 148.000012583161 x3 - 74.000006291581 x4 - 37.000003145790 x5
      - 148.000012583161 x6 - 74.000006291581 x7 - 37.000003145790 x8
      - 136.000012583161 x9 - 68.000006291581 x10 - 34.000003145790 x11
      - 140.000012583161 x12 - 70.000006291581 x13 - 35.000003145790 x14
      - 140.000012583161 x15 - 70.000006291581 x16 - 35.000003145790 x17 + [
      80.000007190378 x0^2 + 80.000007190378 x0*x1 + 40.000003595189 x0*x2
      + 160.000014380756 x0*x3 + 80.000007190378 x0*x4 + 40.000003595189 x0*x5
      + 160.000014380756 x0*x6 + 80.000007190378 x0*x7 + 40.000003595189 x0*x8
      + 160.000014380756 x0*x9 + 80.000007190378 x0*x10 + 40.000003595189 x0*x11
      + 160.000014380756 x0*x12 + 80.000007190378 x0*x13
      + 40.000003595189 x0*x14 + 160.000014380756 x0*x15
      + 80.000007190378 x0*x16 + 40.000003595189 x0*x17 + 20.000001797594 x1^2
      + 20.000001797594 x1*x2 + 80.000007190378 x1*x3 + 40.000003595189 x1*x4
      + 20.000001797594 x1*x5 + 80.000007190378 x1*x6 + 40.000003595189 x1*x7
      + 20.000001797594 x1*x8 + 80.000007190378 x1*x9 + 40.000003595189 x1*x10
      + 20.000001797594 x1*x11 + 80.000007190378 x1*x12 + 40.000003595189 x1*x13
      + 20.000001797594 x1*x14 + 80.000007190378 x1*x15 + 40.000003595189 x1*x16
      + 20.000001797594 x1*x17 + 5.000000449399 x2^2 + 40.000003595189 x2*x3
      + 20.000001797594 x2*x4 + 10.000000898797 x2*x5 + 40.000003595189 x2*x6
      + 20.000001797594 x2*x7 + 10.000000898797 x2*x8 + 40.000003595189 x2*x9
      + 20.000001797594 x2*x10 + 10.000000898797 x2*x11 + 40.000003595189 x2*x12
      + 20.000001797594 x2*x13 + 10.000000898797 x2*x14 + 40.000003595189 x2*x15
      + 20.000001797594 x2*x16 + 10.000000898797 x2*x17 + 112.000007190378 x3^2
      + 112.000007190378 x3*x4 + 56.000003595189 x3*x5 + 160.000014380756 x3*x6
      + 80.000007190378 x3*x7 + 40.000003595189 x3*x8 + 160.000014380756 x3*x9
      + 80.000007190378 x3*x10 + 40.000003595189 x3*x11
      + 160.000014380756 x3*x12 + 80.000007190378 x3*x13
      + 40.000003595189 x3*x14 + 160.000014380756 x3*x15
      + 80.000007190378 x3*x16 + 40.000003595189 x3*x17 + 28.000001797594 x4^2
      + 28.000001797594 x4*x5 + 80.000007190378 x4*x6 + 40.000003595189 x4*x7
      + 20.000001797594 x4*x8 + 80.000007190378 x4*x9 + 40.000003595189 x4*x10
      + 20.000001797594 x4*x11 + 80.000007190378 x4*x12 + 40.000003595189 x4*x13
      + 20.000001797594 x4*x14 + 80.000007190378 x4*x15 + 40.000003595189 x4*x16
      + 20.000001797594 x4*x17 + 7.000000449399 x5^2 + 40.000003595189 x5*x6
      + 20.000001797594 x5*x7 + 10.000000898797 x5*x8 + 40.000003595189 x5*x9
      + 20.000001797594 x5*x10 + 10.000000898797 x5*x11 + 40.000003595189 x5*x12
      + 20.000001797594 x5*x13 + 10.000000898797 x5*x14 + 40.000003595189 x5*x15
      + 20.000001797594 x5*x16 + 10.000000898797 x5*x17 + 112.000007190378 x6^2
      + 112.000007190378 x6*x7 + 56.000003595189 x6*x8 + 160.000014380756 x6*x9
      + 80.000007190378 x6*x10 + 40.000003595189 x6*x11
      + 160.000014380756 x6*x12 + 80.000007190378 x6*x13
      + 40.000003595189 x6*x14 + 160.000014380756 x6*x15
      + 80.000007190378 x6*x16 + 40.000003595189 x6*x17 + 28.000001797594 x7^2
      + 28.000001797594 x7*x8 + 80.000007190378 x7*x9 + 40.000003595189 x7*x10
      + 20.000001797594 x7*x11 + 80.000007190378 x7*x12 + 40.000003595189 x7*x13
      + 20.000001797594 x7*x14 + 80.000007190378 x7*x15 + 40.000003595189 x7*x16
      + 20.000001797594 x7*x17 + 7.000000449399 x8^2 + 40.000003595189 x8*x9
      + 20.000001797594 x8*x10 + 10.000000898797 x8*x11 + 40.000003595189 x8*x12
      + 20.000001797594 x8*x13 + 10.000000898797 x8*x14 + 40.000003595189 x8*x15
      + 20.000001797594 x8*x16 + 10.000000898797 x8*x17 + 144.000007190378 x9^2
      + 144.000007190378 x9*x10 + 72.000003595189 x9*x11
      + 160.000014380756 x9*x12 + 80.000007190378 x9*x13
      + 40.000003595189 x9*x14 + 160.000014380756 x9*x15
      + 80.000007190378 x9*x16 + 40.000003595189 x9*x17 + 36.000001797594 x10^2
      + 36.000001797594 x10*x11 + 80.000007190378 x10*x12
      + 40.000003595189 x10*x13 + 20.000001797594 x10*x14
      + 80.000007190378 x10*x15 + 40.000003595189 x10*x16
      + 20.000001797594 x10*x17 + 9.000000449399 x11^2 + 40.000003595189 x11*x12
      + 20.000001797594 x11*x13 + 10.000000898797 x11*x14
      + 40.000003595189 x11*x15 + 20.000001797594 x11*x16
      + 10.000000898797 x11*x17 + 112.000007190378 x12^2
      + 112.000007190378 x12*x13 + 56.000003595189 x12*x14
      + 160.000014380756 x12*x15 + 80.000007190378 x12*x16
      + 40.000003595189 x12*x17 + 28.000001797594 x13^2
      + 28.000001797594 x13*x14 + 80.000007190378 x13*x15
      + 40.000003595189 x13*x16 + 20.000001797594 x13*x17 + 7.000000449399 x14^2
      + 40.000003595189 x14*x15 + 20.000001797594 x14*x16
      + 10.000000898797 x14*x17 + 80.000007190378 x15^2
      + 80.000007190378 x15*x16 + 40.000003595189 x15*x17
      + 20.000001797594 x16^2 + 20.000001797594 x16*x17 + 5.000000449399 x17^2
      ]/2 + 122.500011010266
Subject To

Bounds
 0 <= x0 <= 1
 0 <= x1 <= 1
 0 <= x2 <= 1
 0 <= x3 <= 1
 0 <= x4 <= 1
 0 <= x5 <= 1
 0 <= x6 <= 1
 0 <= x7 <= 1
 0 <= x8 <= 1
 0 <= x9 <= 1
 0 <= x10 <= 1
 0 <= x11 <= 1
 0 <= x12 <= 1
 0 <= x13 <= 1
 0 <= x14 <= 1
 0 <= x15 <= 1
 0 <= x16 <= 1
 0 <= x17 <= 1

Binaries
 x0 x1 x2 x3 x4 x5 x6 x7 x8 x9 x10 x11 x12 x13 x14 x15 x16 x17
End
